% Archivo de datos
r=0.8;     %porcentaje límite para considerar régimen alto 
dr=3;    %número de días de espera para evitar el  régimen alto  
n=4;      %Número de días de producción
s=4;      %Número de clientes
Cn=110;    %Costo de producción de central nuclear
Ch=10;    %Costo de producción de central hidroeléctrica
Ct=50;    %Costo de producción de central térmica
Pn=2000;  %Max. producción diaria de central nuclear
Ph=1000;   %Max. producción diaria de central hidroeléctrica
Pt=1500;   %Max. producción diaria de  central térmica
D=[|1000,900,900,900
   |1000,900,900,900
   |900,900,900,900
   |800,900,900,900|];      %Demanda diaria